p cnf 10 50
-7 6 -4 0
-5 -6 1 0
6 -7 -10 0
-7 -3 6 0
7 -2 4 0
5 -1 -7 0
-9 -6 -2 0
7 -4 5 0
5 -8 3 0
-8 9 10 0
-2 9 -10 0
-4 7 -2 0
-4 -6 -5 0
-8 3 4 0
10 7 -1 0
10 6 8 0
-3 -7 -4 0
-3 4 2 0
9 2 3 0
10 7 8 0
6 -1 3 0
-7 -4 -3 0
-8 -3 9 0
-4 -8 5 0
1 10 -2 0
3 1 -9 0
-8 2 -9 0
-2 -6 -5 0
-2 7 -8 0
10 -7 9 0
-8 -3 -2 0
-5 -8 4 0
-3 -9 -2 0
5 -6 -10 0
-9 -8 4 0
-3 -8 7 0
-6 -7 -2 0
5 -4 10 0
-7 -10 1 0
-7 -6 -8 0
1 9 10 0
9 -6 -3 0
-9 -10 1 0
-1 -5 -2 0
-8 -6 -5 0
6 -10 4 0
9 4 1 0
10 -2 -4 0
10 -2 9 0
-2 -8 1 0